
******************************************************************************
This program contains Ipopt, a library for large-scale nonlinear optimization.
 Ipopt is released as open source code under the Eclipse Public License (EPL).
         For more information visit http://projects.coin-or.org/Ipopt
******************************************************************************

This is Ipopt version 3.12.6, running with linear solver ma57.

Number of nonzeros in equality constraint Jacobian...:        7
Number of nonzeros in inequality constraint Jacobian.:        4
Number of nonzeros in Lagrangian Hessian.............:        8

Total number of variables............................:        5
                     variables with only lower bounds:        5
                variables with lower and upper bounds:        0
                     variables with only upper bounds:        0
Total number of equality constraints.................:        2
Total number of inequality constraints...............:        2
        inequality constraints with only lower bounds:        0
   inequality constraints with lower and upper bounds:        1
        inequality constraints with only upper bounds:        1

iter    objective    inf_pr   inf_du lg(mu)  ||d||  lg(rg) alpha_du alpha_pr  ls
   0  5.0000000e-01 1.51e+03 1.00e+00  -1.0 0.00e+00    -  0.00e+00 0.00e+00   0
   1  4.9941132e-01 1.51e+03 1.18e+01  -1.0 5.31e+02    -  8.38e-04 6.53e-05h  1
   2  2.3104006e-01 1.47e+03 4.35e+03  -1.0 2.48e+03    -  1.94e-04 4.86e-01f  1
   3  2.2272867e-01 6.74e+02 2.95e+03  -1.0 7.00e+00    -  4.26e-02 9.48e-01h  1
   4  6.1623554e+00 5.47e+02 3.69e+06  -1.0 2.24e+02   4.0 1.01e-04 2.21e-01h  1
   5  6.2301788e+00 5.46e+02 3.70e+06  -1.0 2.57e+02   5.3 1.18e-01 1.93e-03h  1
   6  6.2308905e+00 5.46e+02 3.70e+06  -1.0 2.59e+02   5.8 1.43e-01 1.91e-05h  1
Reallocating memory for MA57: lfact (147)
   7  6.5307432e+00 5.46e+02 3.87e+06  -1.0 8.24e+02   5.3 8.69e-03 8.41e-04h  1
   8  7.5729959e+00 5.45e+02 2.78e+07  -1.0 7.13e+02   5.7 1.66e-02 2.21e-03h  1
   9r 7.5729959e+00 5.45e+02 1.00e+03   2.1 0.00e+00   5.2 0.00e+00 2.79e-07R  6
iter    objective    inf_pr   inf_du lg(mu)  ||d||  lg(rg) alpha_du alpha_pr  ls
  10r 8.3843532e+00 5.02e+02 9.79e+02   2.1 1.08e+04    -  1.00e+00 1.46e-02f  1
  11r 1.0026772e+01 2.16e+01 8.70e+02   1.4 1.05e+04    -  3.50e-01 9.75e-02f  1
  12  1.3337670e+01 1.65e+01 2.96e+00  -1.0 3.53e+01    -  4.12e-01 2.34e-01h  1
  13  5.5420010e+01 8.50e-01 9.24e+00  -1.0 4.21e+01    -  2.67e-01 1.00e+00h  1
  14  5.5140894e+01 4.76e-01 4.60e+00  -1.0 6.29e-01    -  9.92e-01 4.44e-01h  1
  15  5.5214568e+01 6.62e-02 3.96e-02  -1.0 1.18e+01    -  1.00e+00 1.00e+00f  1
  16  5.5023866e+01 5.10e-05 3.32e-05  -2.5 2.29e-01    -  1.00e+00 1.00e+00h  1
  17  5.5017907e+01 3.05e-04 4.77e-05  -3.8 6.50e-01    -  1.00e+00 1.00e+00h  1
  18  5.5017610e+01 1.35e-05 2.07e-06  -5.7 1.34e-01    -  1.00e+00 1.00e+00h  1
  19  5.5017610e+01 2.22e-02 3.41e-03  -5.7 1.10e+01    -  1.00e+00 5.00e-01h  2
iter    objective    inf_pr   inf_du lg(mu)  ||d||  lg(rg) alpha_du alpha_pr  ls
  20  5.5017610e+01 2.22e-02 2.72e+01  -5.7 1.21e-02   4.7 8.54e-02 1.04e-03h  3
  21  5.5017610e+01 2.22e-02 7.03e-01  -5.7 3.64e-02    -  1.00e+00 1.97e-05h  4
  22  5.5017610e+01 3.52e-07 5.27e-05  -5.7 3.59e-02    -  1.00e+00 1.00e+00h  1
  23r 5.5017610e+01 3.52e-07 9.95e+02  -5.7 0.00e+00    -  0.00e+00 4.77e-07R 22
  24r 5.5017610e+01 4.58e-09 9.95e+00  -5.7 4.26e-02    -  9.90e-01 5.20e-03f  1
  25  5.5017610e+01 5.56e-09 1.04e-01  -5.7 4.57e+00    -  1.00e+00 1.00e+00H  1
  26  5.5017610e+01 1.01e-11 7.71e-08  -5.7 1.12e-04    -  1.00e+00 1.00e+00h  1
  27  5.5017606e+01 5.17e-10 8.20e-11  -8.6 8.06e-04    -  1.00e+00 1.00e+00h  1

Number of Iterations....: 27

                                   (scaled)                 (unscaled)
Objective...............:   5.5017606391814262e+01    5.5017606391814262e+01
Dual infeasibility......:   8.1962406816274236e-11    8.1962406816274236e-11
Constraint violation....:   5.1720405735977693e-10    5.1720405735977693e-10
Complementarity.........:   2.5610587699446467e-09    2.5610587699446467e-09
Overall NLP error.......:   2.5610587699446467e-09    2.5610587699446467e-09


Number of objective function evaluations             = 68
Number of objective gradient evaluations             = 27
Number of equality constraint evaluations            = 68
Number of inequality constraint evaluations          = 68
Number of equality constraint Jacobian evaluations   = 30
Number of inequality constraint Jacobian evaluations = 30
Number of Lagrangian Hessian evaluations             = 27
Total CPU secs in IPOPT (w/o function evaluations)   =      0.010
Total CPU secs in NLP function evaluations           =      0.003

EXIT: Optimal Solution Found.
Note: The following floating-point exceptions are signalling: IEEE_INVALID_FLAG IEEE_DIVIDE_BY_ZERO

************************ CUTEst statistics ************************


 Package used            :  IPOPT
 Problem                 :  CSFI2     
 # variables             =               5
 # constraints           =               4
 # objective functions   =        0.9600000E+02
 # objective gradients   =        0.2800000E+02
 # objective Hessians    =        0.2600000E+02
 # Hessian-vector prdct  =        0.0000000E+00
 # constraints functions =        0.1000000E+03
 # constraints gradients =        0.3200000E+02
 # constraints Hessians  =        0.2600000E+02
 Exit code               =               0
 Final f                 =   0.5501761E+02
 Set up time             =            0.00 seconds
 Solve time              =            0.04 seconds


******************************************************************

System Time =       0.0120000001 s.
